
******************************************************************************
This program contains Ipopt, a library for large-scale nonlinear optimization.
 Ipopt is released as open source code under the Eclipse Public License (EPL).
         For more information visit https://github.com/coin-or/Ipopt
******************************************************************************

This is Ipopt version 3.14.14, running with linear solver MUMPS 5.6.2.

Number of nonzeros in equality constraint Jacobian...:        0
Number of nonzeros in inequality constraint Jacobian.:       60
Number of nonzeros in Lagrangian Hessian.............:        0

Total number of variables............................:       15
                     variables with only lower bounds:        0
                variables with lower and upper bounds:        0
                     variables with only upper bounds:        0
Total number of equality constraints.................:        0
Total number of inequality constraints...............:        4
        inequality constraints with only lower bounds:        0
   inequality constraints with lower and upper bounds:        0
        inequality constraints with only upper bounds:        4

iter    objective    inf_pr   inf_du lg(mu)  ||d||  lg(rg) alpha_du alpha_pr  ls
   0  1.8147176e-01 1.97e+01 1.00e+00   0.0 0.00e+00    -  0.00e+00 0.00e+00   0
   1  2.8579416e+00 1.66e+01 7.14e+00  -1.3 6.34e+00    -  6.82e-01 1.25e-01h  4
   2  1.5434379e-03 1.52e+01 8.70e+01  -1.3 6.73e+00    -  2.06e-01 5.00e-01f  2
   3  1.0805075e-01 3.19e+04 1.54e+06  -0.9 1.23e+00    -  9.89e-01 5.00e-01h  2
   4  4.3799145e-02 1.24e+04 5.49e+04  -1.1 2.88e+01    -  1.00e+00 1.00e+00h  1
   5  2.3800983e-02 1.20e+04 4.00e+04  -1.1 3.83e+01    -  1.00e+00 5.00e-01h  2
   6  2.0048157e-02 5.63e+03 1.65e+04  -1.1 2.20e+02    -  1.00e+00 5.92e-01h  1
   7  1.9461986e-02 7.70e+02 2.39e+01  -1.1 1.16e+02    -  1.00e+00 1.00e+00h  1
   8  2.7265682e-01 0.00e+00 9.50e-01  -1.1 8.78e+03    -  5.08e-01 1.00e+00h  1
   9  1.9677056e-01 0.00e+00 4.11e+00  -1.1 6.54e+03    -  2.09e-07 1.49e-09H  1
iter    objective    inf_pr   inf_du lg(mu)  ||d||  lg(rg) alpha_du alpha_pr  ls
  10  5.4693843e-03 2.85e+01 6.21e-01  -1.1 5.76e+03    -  9.13e-01 1.87e-02H  1
  11  9.9801732e-03 0.00e+00 4.47e+02  -1.1 2.11e+02    -  9.37e-01 5.00e-01h  2
  12  2.1168544e-02 0.00e+00 9.20e-01  -1.1 1.08e+02    -  9.88e-01 1.00e+00h  1
  13  1.3509472e-01 0.00e+00 6.91e+01  -1.1 1.07e+04    -  8.95e-01 1.00e+00h  1
  14  1.4725860e-02 0.00e+00 2.82e+02  -1.1 1.25e+05    -  1.00e+00 5.00e-01h  2
  15  4.6574013e-03 0.00e+00 1.78e+02  -1.1 1.63e+05    -  1.00e+00 5.00e-01h  2
  16  1.8395699e-03 0.00e+00 1.54e+02  -1.1 5.16e+04    -  8.88e-01 3.12e-02h  6
  17  7.2817581e-04 2.27e+03 4.15e-01  -1.1 7.03e+04    -  1.00e+00 5.00e-01h  2
  18  1.7787147e+02 6.30e+04 3.36e+04  -6.9 1.37e+05    -  2.26e-02 7.59e-03H  1
  19  5.3221182e+01 8.03e+04 6.93e+03  -1.4 5.91e+06    -  1.29e-04 2.49e-05f  4
iter    objective    inf_pr   inf_du lg(mu)  ||d||  lg(rg) alpha_du alpha_pr  ls
  20  5.8124833e+01 8.05e+04 7.35e+03  -1.4 1.28e+05    -  2.74e-02 8.04e-03h  1
  21  8.7385333e+03 9.83e+01 1.66e+06  -1.4 1.52e+04    -  5.16e-05 1.60e-04H  1
  22  1.0511147e+03 2.15e+01 1.06e+05  -1.4 2.76e+07    -  1.53e-06 2.39e-05f  1
  23  1.0013629e+03 2.12e+01 1.00e+05  -1.4 2.50e+09    -  1.04e-06 8.26e-09f  1
  24  7.0918612e+02 4.01e+02 5.55e+04  -1.4 9.95e+04    -  3.81e-01 6.79e-03f  1
  25  7.0095302e+02 4.08e+02 5.48e+04  -1.4 7.18e+04    -  1.00e+00 9.41e-05f  1
  26  3.9435870e+02 3.67e+02 3.94e+04  -1.4 2.75e+02    -  8.40e-01 3.06e-02f  1
